JulietBench/Juliet_Based_Patch_Bench/FFmpeg/CWE-369-Divide-By-Zero/CVE_2018_14394_3a2d21bc5f97aa0161db3ae731fc2732be6108b8/Resultff_mov_write_packet_patch2EQ.smt2
; benchmark generated from python API
(set-info :status unknown)
(declare-fun rdx () (_ BitVec 64))
(declare-fun R () (_ BitVec 32))
(declare-fun rdi () (_ BitVec 64))
(declare-fun rsi () (_ BitVec 64))
(declare-fun rcx () (_ BitVec 64))
(assert
 (let ((?x10 ((_ extract 31 0) rdx)))
 (let (($x398 (= R ?x10)))
 (let ((?x6 ((_ extract 31 0) rdi)))
 (let (($x15 (= (_ bv2 32) ?x6)))
 (let (($x365 (and $x15 $x398)))
 (let (($x54 (= (_ bv105 32) ?x6)))
 (let (($x333 (and $x54 $x398)))
 (let ((?x8 ((_ extract 31 0) rsi)))
 (let (($x313 (= R ?x8)))
 (let (($x41 (and (distinct (_ bv2 32) ?x6) true)))
 (let (($x125 (and (distinct (_ bv105 32) ?x6) true)))
 (let (($x375 (and $x125 $x41 $x313)))
 (let (($x342 (or $x375 $x333 $x365)))
 (let (($x380 (= (_ bv1 32) R)))
 (let (($x47 (= (_ bv0 64) rcx)))
 (let (($x395 (and $x47 $x125 $x41 $x380)))
 (let ((?x144 ((_ extract 63 63) rcx)))
 (let ((?x222 (concat (concat (concat (concat (concat ?x144 ?x144) ?x144) ?x144) ?x144) ?x144)))
 (let ((?x227 (concat (concat (concat (concat (concat ?x222 ?x144) ?x144) ?x144) ?x144) ?x144)))
 (let ((?x232 (concat (concat (concat (concat (concat ?x227 ?x144) ?x144) ?x144) ?x144) ?x144)))
 (let ((?x237 (concat (concat (concat (concat (concat ?x232 ?x144) ?x144) ?x144) ?x144) ?x144)))
 (let ((?x242 (concat (concat (concat (concat (concat ?x237 ?x144) ?x144) ?x144) ?x144) ?x144)))
 (let ((?x247 (concat (concat (concat (concat (concat ?x242 ?x144) ?x144) ?x144) ?x144) ?x144)))
 (let ((?x252 (concat (concat (concat (concat (concat ?x247 ?x144) ?x144) ?x144) ?x144) ?x144)))
 (let ((?x257 (concat (concat (concat (concat (concat ?x252 ?x144) ?x144) ?x144) ?x144) ?x144)))
 (let ((?x262 (concat (concat (concat (concat (concat ?x257 ?x144) ?x144) ?x144) ?x144) ?x144)))
 (let ((?x267 (concat (concat (concat (concat (concat ?x262 ?x144) ?x144) ?x144) ?x144) ?x144)))
 (let ((?x272 (concat (concat (concat (concat (concat ?x267 ?x144) ?x144) ?x144) ?x144) ?x144)))
 (let ((?x277 (concat (concat (concat (concat (concat ?x272 ?x144) ?x144) ?x144) ?x144) ?x144)))
 (let ((?x281 (concat (concat (concat (concat ?x277 ?x144) ?x144) ?x144) rcx)))
 (let ((?x140 ((_ extract 31 31) rsi)))
 (let ((?x156 (concat (concat (concat (concat (concat ?x140 ?x140) ?x140) ?x140) ?x140) ?x140)))
 (let ((?x161 (concat (concat (concat (concat (concat ?x156 ?x140) ?x140) ?x140) ?x140) ?x140)))
 (let ((?x166 (concat (concat (concat (concat (concat ?x161 ?x140) ?x140) ?x140) ?x140) ?x140)))
 (let ((?x171 (concat (concat (concat (concat (concat ?x166 ?x140) ?x140) ?x140) ?x140) ?x140)))
 (let ((?x176 (concat (concat (concat (concat (concat ?x171 ?x140) ?x140) ?x140) ?x140) ?x140)))
 (let ((?x181 (concat (concat (concat (concat (concat ?x176 ?x140) ?x140) ?x140) ?x140) ?x140)))
 (let ((?x183 (concat (concat ?x181 ?x140) ?x8)))
 (let ((?x184 (bvashr ?x183 (_ bv63 64))))
 (let ((?x189 (concat (concat (concat (concat (concat ?x184 ?x140) ?x140) ?x140) ?x140) ?x140)))
 (let ((?x194 (concat (concat (concat (concat (concat ?x189 ?x140) ?x140) ?x140) ?x140) ?x140)))
 (let ((?x199 (concat (concat (concat (concat (concat ?x194 ?x140) ?x140) ?x140) ?x140) ?x140)))
 (let ((?x204 (concat (concat (concat (concat (concat ?x199 ?x140) ?x140) ?x140) ?x140) ?x140)))
 (let ((?x209 (concat (concat (concat (concat (concat ?x204 ?x140) ?x140) ?x140) ?x140) ?x140)))
 (let ((?x214 (concat (concat (concat (concat (concat ?x209 ?x140) ?x140) ?x140) ?x140) ?x140)))
 (let ((?x217 (concat (concat (concat ?x214 ?x140) ?x140) ?x8)))
 (let ((?x282 (bvsdiv ?x217 ?x281)))
 (let ((?x283 ((_ extract 31 0) ?x282)))
 (let (($x404 (= R ?x283)))
 (let (($x48 (and (distinct (_ bv0 64) rcx) true)))
 (let (($x309 (and $x48 $x125 $x41 $x404)))
 (let (($x336 (or $x309 $x395 $x333 $x365)))
 (and $x336 $x342))))))))))))))))))))))))))))))))))))))))))))))))))))))
(check-sat)
